NAME : n100w140.004.854.tour
COMMENT : Length = 854
COMMENT : Found by LKH [Keld Helsgaun] Tue Nov  7 19:45:15 2017
TYPE : TOUR
DIMENSION : 101
TOUR_SECTION
1
50
48
73
87
38
20
36
57
39
61
77
46
84
94
9
85
68
66
101
42
15
86
54
11
53
56
92
91
72
49
79
78
47
96
25
12
62
58
28
59
10
55
44
30
98
27
75
26
71
97
4
74
64
31
14
60
45
6
32
29
2
80
40
8
76
51
7
93
65
52
70
34
82
41
13
88
17
22
89
21
33
16
18
43
83
24
63
23
67
19
81
5
37
95
69
99
90
100
3
35
-1
EOF
